80
7
69
72
45
83
81
94
14
73
36
29
49
90
32
78
75
23
88
56
84
91
86
20
92
64
43
82
26
37
53
47
25
55
16
71
41
93
70
5
62
96
95
11
65
77
15
10
40
59
27
89
1
18
46
76
34
38
31
4
30
22
66
63
12
44
51
2
42
6
60
33
58
79
0
24
54
50
13
35
52
99
3
97
21
68
39
74
48
8
28
85
98
57
87
67
19
61
17
9
